<number of tasks>
20

<cycle time>
1000

<order strength>
0,505


<task times>
1 98
2 255
3 211
4 85
5 79
6 129
7 168
8 243
9 55
10 175
11 109
12 129
13 171
14 105
15 129
16 159
17 146
18 174
19 212
20 99

<precedence relations>
1,13
2,5
2,10
2,13
3,4
4,5
4,6
4,7
4,8
5,9
5,14
5,16
6,10
6,14
7,9
7,10
7,12
7,17
8,11
8,12
9,15
10,15
10,16
11,14
12,13
12,18
12,20
14,17
14,20
15,18
15,19
16,18

<end>
